NAME : ConvertedInstance
TYPE : CVRP
DIMENSION : 256
CAPACITY : 1000
NODE_COORD_SECTION
1 0 -15
2 -1 -14
3 1 -14
4 -2 -13
5 0 -13
6 2 -13
7 -3 -12
8 -1 -12
9 1 -12
10 3 -12
11 -4 -11
12 -2 -11
13 0 -11
14 2 -11
15 4 -11
16 -5 -10
17 -3 -10
18 -1 -10
19 1 -10
20 3 -10
21 5 -10
22 -6 -9
23 -4 -9
24 -2 -9
25 0 -9
26 2 -9
27 4 -9
28 6 -9
29 -7 -8
30 -5 -8
31 -3 -8
32 -1 -8
33 1 -8
34 3 -8
35 5 -8
36 7 -8
37 -8 -7
38 -6 -7
39 -4 -7
40 -2 -7
41 0 -7
42 2 -7
43 4 -7
44 6 -7
45 8 -7
46 -9 -6
47 -7 -6
48 -5 -6
49 -3 -6
50 -1 -6
51 1 -6
52 3 -6
53 5 -6
54 7 -6
55 9 -6
56 -10 -5
57 -8 -5
58 -6 -5
59 -4 -5
60 -2 -5
61 0 -5
62 2 -5
63 4 -5
64 6 -5
65 8 -5
66 10 -5
67 -11 -4
68 -9 -4
69 -7 -4
70 -5 -4
71 -3 -4
72 -1 -4
73 1 -4
74 3 -4
75 5 -4
76 7 -4
77 9 -4
78 11 -4
79 -12 -3
80 -10 -3
81 -8 -3
82 -6 -3
83 -4 -3
84 -2 -3
85 0 -3
86 2 -3
87 4 -3
88 6 -3
89 8 -3
90 10 -3
91 12 -3
92 -13 -2
93 -11 -2
94 -9 -2
95 -7 -2
96 -5 -2
97 -3 -2
98 -1 -2
99 1 -2
100 3 -2
101 5 -2
102 7 -2
103 9 -2
104 11 -2
105 13 -2
106 -14 -1
107 -12 -1
108 -10 -1
109 -8 -1
110 -6 -1
111 -4 -1
112 -2 -1
113 0 -1
114 2 -1
115 4 -1
116 6 -1
117 8 -1
118 10 -1
119 12 -1
120 14 -1
121 -15 0
122 -13 0
123 -11 0
124 -9 0
125 -7 0
126 -5 0
127 -3 0
128 -1 0
129 1 0
130 3 0
131 5 0
132 7 0
133 9 0
134 11 0
135 13 0
136 15 0
137 -14 1
138 -12 1
139 -10 1
140 -8 1
141 -6 1
142 -4 1
143 -2 1
144 0 1
145 2 1
146 4 1
147 6 1
148 8 1
149 10 1
150 12 1
151 14 1
152 -13 2
153 -11 2
154 -9 2
155 -7 2
156 -5 2
157 -3 2
158 -1 2
159 1 2
160 3 2
161 5 2
162 7 2
163 9 2
164 11 2
165 13 2
166 -12 3
167 -10 3
168 -8 3
169 -6 3
170 -4 3
171 -2 3
172 0 3
173 2 3
174 4 3
175 6 3
176 8 3
177 10 3
178 12 3
179 -11 4
180 -9 4
181 -7 4
182 -5 4
183 -3 4
184 -1 4
185 1 4
186 3 4
187 5 4
188 7 4
189 9 4
190 11 4
191 -10 5
192 -8 5
193 -6 5
194 -4 5
195 -2 5
196 0 5
197 2 5
198 4 5
199 6 5
200 8 5
201 10 5
202 -9 6
203 -7 6
204 -5 6
205 -3 6
206 -1 6
207 1 6
208 3 6
209 5 6
210 7 6
211 9 6
212 -8 7
213 -6 7
214 -4 7
215 -2 7
216 0 7
217 2 7
218 4 7
219 6 7
220 8 7
221 -7 8
222 -5 8
223 -3 8
224 -1 8
225 1 8
226 3 8
227 5 8
228 7 8
229 -6 9
230 -4 9
231 -2 9
232 0 9
233 2 9
234 4 9
235 6 9
236 -5 10
237 -3 10
238 -1 10
239 1 10
240 3 10
241 5 10
242 -4 11
243 -2 11
244 0 11
245 2 11
246 4 11
247 -3 12
248 -1 12
249 1 12
250 3 12
251 -2 13
252 0 13
253 2 13
254 -1 14
255 1 14
256 0 15
DEMAND_SECTION
1 0
2 300
3 300
4 180
5 300
6 180
7 128
8 180
9 180
10 128
11 100
12 128
13 180
14 128
15 100
16 81
17 100
18 128
19 128
20 100
21 81
22 69
23 81
24 100
25 128
26 100
27 81
28 69
29 60
30 69
31 81
32 100
33 100
34 81
35 69
36 60
37 52
38 60
39 69
40 81
41 100
42 81
43 69
44 60
45 52
46 47
47 52
48 60
49 69
50 81
51 81
52 69
53 60
54 52
55 47
56 42
57 47
58 52
59 60
60 69
61 81
62 69
63 60
64 52
65 47
66 42
67 39
68 42
69 47
70 52
71 60
72 69
73 69
74 60
75 52
76 47
77 42
78 39
79 36
80 39
81 42
82 47
83 52
84 60
85 69
86 60
87 52
88 47
89 42
90 39
91 36
92 33
93 36
94 39
95 42
96 47
97 52
98 60
99 60
100 52
101 47
102 42
103 39
104 36
105 33
106 31
107 33
108 36
109 39
110 42
111 47
112 52
113 60
114 52
115 47
116 42
117 39
118 36
119 33
120 31
121 29
122 31
123 33
124 36
125 39
126 42
127 47
128 52
129 52
130 47
131 42
132 39
133 36
134 33
135 31
136 29
137 29
138 31
139 33
140 36
141 39
142 42
143 47
144 52
145 47
146 42
147 39
148 36
149 33
150 31
151 29
152 29
153 31
154 33
155 36
156 39
157 42
158 47
159 47
160 42
161 39
162 36
163 33
164 31
165 29
166 29
167 31
168 33
169 36
170 39
171 42
172 47
173 42
174 39
175 36
176 33
177 31
178 29
179 29
180 31
181 33
182 36
183 39
184 42
185 42
186 39
187 36
188 33
189 31
190 29
191 29
192 31
193 33
194 36
195 39
196 42
197 39
198 36
199 33
200 31
201 29
202 29
203 31
204 33
205 36
206 39
207 39
208 36
209 33
210 31
211 29
212 29
213 31
214 33
215 36
216 39
217 36
218 33
219 31
220 29
221 29
222 31
223 33
224 36
225 36
226 33
227 31
228 29
229 29
230 31
231 33
232 36
233 33
234 31
235 29
236 29
237 31
238 33
239 33
240 31
241 29
242 29
243 31
244 33
245 31
246 29
247 29
248 31
249 31
250 29
251 29
252 31
253 29
254 29
255 29
256 29
DEPOT_SECTION
1
-1
EOF
